
c turning on binary mode checking

c parsing input formula with 5720 variables and 25546 clauses

c finished parsing, read 20493 bytes from proof file

c detected empty clause; start verification via backward checking

c 1229 of 25546 clauses in core                            

c 61 of 5001 lemmas in core using 12077 resolution steps

c 0 RAT lemmas in core; 4 redundant literals in core lemmas

s VERIFIED

c verification time: 0.056 seconds
